\ENCODING=ISO-8859-1
\Problem name: instances

Maximize
 obj:
Subject To
 c1: 538 x1 + 473 x2 + 779 x3 + 704 x4 + 361 x5 + 141 x6 + 638 x7 + 608 x8
     + 268 x9 + 995 x10 <= 2752
Bounds
 0 <= x1 <= 1
 0 <= x2 <= 1
 0 <= x3 <= 1
 0 <= x4 <= 1
 0 <= x5 <= 1
 0 <= x6 <= 1
 0 <= x7 <= 1
 0 <= x8 <= 1
 0 <= x9 <= 1
 0 <= x10 <= 1
Binaries
 x1  x2  x3  x4  x5  x6  x7  x8  x9  x10 
End
